c Generated map
c Size: 13 * 13, weights in range: 1 to 10, walls: True, with ratio 0.1
c dim 4 of 4
c
p sp 169 251
c graph contains 169 nodes and 251 arcs
c
a 1 14 3
a 14 1 3
a 1 2 1
a 2 1 1
a 2 15 7
a 15 2 7
a 2 3 7
a 3 2 7
a 3 16 6
a 16 3 6
a 3 4 10
a 4 3 10
a 4 17 10
a 17 4 10
a 4 5 5
a 5 4 5
a 5 18 5
a 18 5 5
a 5 6 1
a 6 5 1
a 6 19 4
a 19 6 4
a 6 7 5
a 7 6 5
a 7 20 6
a 20 7 6
a 7 8 4
a 8 7 4
a 8 21 7
a 21 8 7
a 8 9 8
a 9 8 8
a 9 22 2
a 22 9 2
a 9 10 6
a 10 9 6
a 10 23 5
a 23 10 5
a 10 11 4
a 11 10 4
a 11 24 8
a 24 11 8
a 11 12 3
a 12 11 3
a 12 25 8
a 25 12 8
a 12 13 7
a 13 12 7
a 13 26 2
a 26 13 2
a 14 27 9
a 27 14 9
a 14 15 7
a 15 14 7
a 15 28 2
a 28 15 2
a 15 16 5
a 16 15 5
a 16 29 8
a 29 16 8
a 16 17 6
a 17 16 6
a 17 30 6
a 30 17 6
a 17 18 9
a 18 17 9
a 18 19 1
a 19 18 1
a 19 32 1
a 32 19 1
a 19 20 10
a 20 19 10
a 20 33 2
a 33 20 2
a 20 21 2
a 21 20 2
a 21 34 5
a 34 21 5
a 21 22 5
a 22 21 5
a 22 35 3
a 35 22 3
a 22 23 1
a 23 22 1
a 23 36 9
a 36 23 9
a 23 24 7
a 24 23 7
a 24 37 3
a 37 24 3
a 24 25 2
a 25 24 2
a 25 38 8
a 38 25 8
a 25 26 2
a 26 25 2
a 26 39 3
a 39 26 3
a 27 40 8
a 40 27 8
a 27 28 10
a 28 27 10
a 28 41 3
a 41 28 3
a 28 29 2
a 29 28 2
a 29 42 3
a 42 29 3
a 29 30 3
a 30 29 3
a 30 43 7
a 43 30 7
a 32 33 5
a 33 32 5
a 33 46 4
a 46 33 4
a 33 34 2
a 34 33 2
a 34 47 10
a 47 34 10
a 34 35 3
a 35 34 3
a 35 48 2
a 48 35 2
a 35 36 9
a 36 35 9
a 36 49 8
a 49 36 8
a 36 37 7
a 37 36 7
a 37 50 4
a 50 37 4
a 37 38 3
a 38 37 3
a 38 51 9
a 51 38 9
a 38 39 5
a 39 38 5
a 39 52 6
a 52 39 6
a 40 53 3
a 53 40 3
a 40 41 6
a 41 40 6
a 41 54 1
a 54 41 1
a 41 42 3
a 42 41 3
a 42 55 9
a 55 42 9
a 42 43 6
a 43 42 6
a 43 56 2
a 56 43 2
a 43 44 9
a 44 43 9
a 44 57 9
a 57 44 9
a 46 47 8
a 47 46 8
a 47 60 6
a 60 47 6
a 47 48 5
a 48 47 5
a 48 61 8
a 61 48 8
a 48 49 6
a 49 48 6
a 49 62 5
a 62 49 5
a 49 50 3
a 50 49 3
a 50 63 8
a 63 50 8
a 50 51 2
a 51 50 2
a 51 64 10
a 64 51 10
a 51 52 5
a 52 51 5
a 52 65 6
a 65 52 6
a 53 54 10
a 54 53 10
a 54 67 7
a 67 54 7
a 54 55 7
a 55 54 7
a 55 56 3
a 56 55 3
a 56 69 6
a 69 56 6
a 56 57 4
a 57 56 4
a 57 70 5
a 70 57 5
a 57 58 5
a 58 57 5
a 60 73 4
a 73 60 4
a 60 61 5
a 61 60 5
a 61 74 9
a 74 61 9
a 61 62 3
a 62 61 3
a 62 75 4
a 75 62 4
a 62 63 7
a 63 62 7
a 63 76 9
a 76 63 9
a 63 64 2
a 64 63 2
a 64 77 5
a 77 64 5
a 64 65 6
a 65 64 6
a 65 78 3
a 78 65 3
a 67 80 2
a 80 67 2
a 69 82 4
a 82 69 4
a 69 70 1
a 70 69 1
a 70 83 4
a 83 70 4
a 72 85 4
a 85 72 4
a 72 73 1
a 73 72 1
a 73 86 2
a 86 73 2
a 73 74 5
a 74 73 5
a 74 75 9
a 75 74 9
a 75 76 8
a 76 75 8
a 76 89 4
a 89 76 4
a 76 77 2
a 77 76 2
a 77 90 1
a 90 77 1
a 77 78 4
a 78 77 4
a 78 91 5
a 91 78 5
a 80 93 3
a 93 80 3
a 80 81 9
a 81 80 9
a 81 94 7
a 94 81 7
a 81 82 2
a 82 81 2
a 82 83 4
a 83 82 4
a 83 96 10
a 96 83 10
a 83 84 7
a 84 83 7
a 84 97 8
a 97 84 8
a 84 85 5
a 85 84 5
a 85 98 6
a 98 85 6
a 85 86 5
a 86 85 5
a 86 99 4
a 99 86 4
a 89 102 5
a 102 89 5
a 89 90 6
a 90 89 6
a 90 103 2
a 103 90 2
a 90 91 3
a 91 90 3
a 91 104 6
a 104 91 6
a 92 105 6
a 105 92 6
a 92 93 10
a 93 92 10
a 93 106 9
a 106 93 9
a 93 94 6
a 94 93 6
a 94 107 2
a 107 94 2
a 96 109 3
a 109 96 3
a 96 97 9
a 97 96 9
a 97 110 6
a 110 97 6
a 97 98 4
a 98 97 4
a 98 111 9
a 111 98 9
a 98 99 8
a 99 98 8
a 99 112 4
a 112 99 4
a 99 100 4
a 100 99 4
a 100 113 7
a 113 100 7
a 100 101 8
a 101 100 8
a 101 114 9
a 114 101 9
a 101 102 7
a 102 101 7
a 102 115 8
a 115 102 8
a 102 103 1
a 103 102 1
a 103 116 2
a 116 103 2
a 103 104 9
a 104 103 9
a 104 117 1
a 117 104 1
a 105 118 4
a 118 105 4
a 105 106 8
a 106 105 8
a 106 119 9
a 119 106 9
a 106 107 4
a 107 106 4
a 107 108 1
a 108 107 1
a 108 121 7
a 121 108 7
a 108 109 2
a 109 108 2
a 109 122 9
a 122 109 9
a 109 110 4
a 110 109 4
a 110 123 9
a 123 110 9
a 110 111 6
a 111 110 6
a 111 124 5
a 124 111 5
a 111 112 3
a 112 111 3
a 112 125 1
a 125 112 1
a 112 113 9
a 113 112 9
a 113 126 5
a 126 113 5
a 113 114 2
a 114 113 2
a 114 115 8
a 115 114 8
a 115 128 8
a 128 115 8
a 115 116 2
a 116 115 2
a 116 129 8
a 129 116 8
a 116 117 10
a 117 116 10
a 118 131 1
a 131 118 1
a 118 119 5
a 119 118 5
a 119 132 4
a 132 119 4
a 121 134 6
a 134 121 6
a 121 122 1
a 122 121 1
a 122 135 10
a 135 122 10
a 122 123 3
a 123 122 3
a 123 136 7
a 136 123 7
a 123 124 6
a 124 123 6
a 124 137 9
a 137 124 9
a 124 125 6
a 125 124 6
a 125 138 10
a 138 125 10
a 125 126 6
a 126 125 6
a 128 141 3
a 141 128 3
a 128 129 3
a 129 128 3
a 129 142 6
a 142 129 6
a 131 144 1
a 144 131 1
a 131 132 1
a 132 131 1
a 132 145 2
a 145 132 2
a 132 133 4
a 133 132 4
a 133 146 3
a 146 133 3
a 133 134 2
a 134 133 2
a 134 147 10
a 147 134 10
a 134 135 8
a 135 134 8
a 135 148 7
a 148 135 7
a 135 136 4
a 136 135 4
a 136 149 9
a 149 136 9
a 136 137 4
a 137 136 4
a 137 138 10
a 138 137 10
a 138 151 6
a 151 138 6
a 140 153 1
a 153 140 1
a 140 141 2
a 141 140 2
a 141 154 9
a 154 141 9
a 141 142 2
a 142 141 2
a 142 155 3
a 155 142 3
a 142 143 1
a 143 142 1
a 144 157 3
a 157 144 3
a 144 145 6
a 145 144 6
a 145 158 6
a 158 145 6
a 145 146 8
a 146 145 8
a 146 147 3
a 147 146 3
a 147 160 4
a 160 147 4
a 147 148 3
a 148 147 3
a 148 161 10
a 161 148 10
a 148 149 1
a 149 148 1
a 149 162 6
a 162 149 6
a 151 164 10
a 164 151 10
a 151 152 5
a 152 151 5
a 152 165 6
a 165 152 6
a 152 153 1
a 153 152 1
a 153 166 10
a 166 153 10
a 153 154 10
a 154 153 10
a 154 167 4
a 167 154 4
a 154 155 4
a 155 154 4
a 155 168 8
a 168 155 8
a 157 158 2
a 158 157 2
a 160 161 9
a 161 160 9
a 161 162 3
a 162 161 3
a 162 163 8
a 163 162 8
a 163 164 2
a 164 163 2
a 164 165 5
a 165 164 5
a 165 166 4
a 166 165 4
a 166 167 1
a 167 166 1
a 167 168 1
a 168 167 1
a 168 169 7
a 169 168 7
